NAME : random_1
COMMENT : 30 random nodes
TYPE : TSP
DIMENSION : 30
EDGE_WEIGHT_TYPE : EUC_2D
NODE_COORD_SECTION
1 803 266
2 196 350
3 8 307
4 225 346
5 5 153
6 733 6
7 886 512
8 526 243
9 852 678
10 333 414
11 748 82
12 25 182
13 163 923
14 568 64
15 707 559
16 81 37
17 179 248
18 745 642
19 277 351
20 650 791
21 812 522
22 634 60
23 714 408
24 958 270
25 355 946
26 635 484
27 920 640
28 282 828
29 836 360
30 699 566
EOF